(set-info :smt-lib-version 2.6)
(set-logic QF_LIA)
(set-info :category "industrial")
(set-info :status sat)
(declare-fun x0 () Int)
(declare-fun x1 () Int)
(declare-fun x10 () Int)
(declare-fun x11 () Int)
(declare-fun x12 () Int)
(declare-fun x13 () Int)
(declare-fun x14 () Int)
(declare-fun x15 () Int)
(declare-fun x16 () Int)
(declare-fun x17 () Int)
(declare-fun x18 () Int)
(declare-fun x19 () Int)
(declare-fun x2 () Int)
(declare-fun x20 () Int)
(declare-fun x21 () Int)
(declare-fun x22 () Int)
(declare-fun x23 () Int)
(declare-fun x24 () Int)
(declare-fun x25 () Int)
(declare-fun x26 () Int)
(declare-fun x27 () Int)
(declare-fun x28 () Int)
(declare-fun x29 () Int)
(declare-fun x3 () Int)
(declare-fun x4 () Int)
(declare-fun x5 () Int)
(declare-fun x6 () Int)
(declare-fun x7 () Int)
(declare-fun x8 () Int)
(declare-fun x9 () Int)
(assert (let ((?v_14 (* 0 x1)) (?v_19 (* 0 x10)) (?v_24 (* 1 x17)) (?v_23 (* 0 x21)) (?v_32 (* 0 x25)) (?v_16 (* 1 x13)) (?v_40 (* 1 x26)) (?v_6 (* 1 x28)) (?v_67 (* 2 x22)) (?v_46 (* 1 x1)) (?v_86 (* 1 x10)) (?v_7 (* 0 x11)) (?v_2 (* 0 x12)) (?v_37 (* 1 x2)) (?v_10 (* 0 x20)) (?v_5 (* 0 x27)) (?v_11 (* 0 x28)) (?v_3 (* 1 x21)) (?v_4 (* 0 x22)) (?v_17 (* 0 x3)) (?v_8 (* 0 x14)) (?v_31 (* 0 x17)) (?v_9 (* 0 x18)) (?v_15 (* 0 x23)) (?v_87 (* 2 x29)) (?v_33 (* 0 x5)) (?v_52 (* 0 x9)) (?v_42 (* 1 x7)) (?v_26 (* 0 x24)) (?v_51 (* 1 x29)) (?v_63 (* 0 x6)) (?v_75 (* 1 x15)) (?v_28 (* 0 x7)) (?v_18 (* 1 x8)) (?v_49 (* 0 x0)) (?v_55 (* 0 x15)) (?v_59 (* 0 x29)) (?v_60 (* 1 x18)) (?v_41 (* 1 x4)) (?v_50 (* 0 x13)) (?v_58 (* 0 x2)) (?v_74 (* 0 x26)) (?v_82 (* 1 x27)) (?v_66 (* 1 x9)) (?v_34 (* 1 x11)) (?v_90 (* 0 x19)) (?v_56 (* 1 x24)) (?v_61 (* 0 x4)) (?v_39 (* 1 x0))) (let ((?v_83 (+ ?v_39 ?v_18)) (?v_47 (* 1 x12)) (?v_81 (* 1 x23)) (?v_85 (* 1 x25)) (?v_91 (* 1 x3)) (?v_57 (+ ?v_41 ?v_42)) (?v_84 (* 1 x20)) (?v_64 (* 1 x16)) (?v_65 (* 1 x19)) (?v_88 (* 1 x5)) (?v_73 (* 0 x16)) (?v_79 (* 1 x14)) (?v_89 (+ ?v_28 (+ ?v_66 ?v_67))) (?v_13 (* (- 1) x14)) (?v_29 (* (- 2) x15)) (?v_53 (* (- 2) x29)) (?v_21 (* (- 1) x16)) (?v_35 (* (- 1) x18)) (?v_48 (* (- 1) x2)) (?v_0 (* (- 2) x3)) (?v_45 (* (- 1) x6)) (?v_1 (* (- 1) x0)) (?v_80 (* (- 1) x29)) (?v_27 (* (- 1) x4)) (?v_38 (* (- 1) x8)) (?v_12 (* (- 1) x9)) (?v_77 (* (- 1) x1)) (?v_68 (* (- 1) x10)) (?v_70 (* (- 1) x24)) (?v_20 (* (- 1) x15)) (?v_30 (* (- 1) x23)) (?v_78 (* (- 1) x25)) (?v_43 (* (- 1) x17)) (?v_36 (* (- 1) x19)) (?v_22 (* (- 1) x20)) (?v_25 (* (- 1) x22)) (?v_44 (* (- 1) x26)) (?v_71 (* (- 1) x28)) (?v_72 (* (- 1) x5)) (?v_76 (* (- 2) x10)) (?v_69 (* (- 1) x13)) (?v_54 (* (- 1) x21)) (?v_62 (* (- 2) x8))) (and (<= (+ ?v_14 (+ ?v_19 (+ ?v_13 (+ ?v_29 (+ (* (- 2) x24) (+ ?v_53 (+ ?v_21 (+ ?v_24 (+ ?v_35 (+ ?v_48 (+ ?v_23 (+ ?v_32 (+ ?v_16 (+ ?v_40 (+ ?v_6 (+ ?v_0 (+ ?v_45 ?v_67))))))))))))))))) 0) (<= (+ ?v_1 (+ ?v_46 (+ ?v_86 (+ ?v_80 (+ ?v_7 (+ ?v_2 (+ ?v_37 (+ ?v_10 (+ ?v_5 (+ ?v_11 (+ ?v_3 (+ (* 2 x23) (+ ?v_27 (+ ?v_38 (+ ?v_12 (+ ?v_4 ?v_17)))))))))))))))) 0) (<= (+ ?v_0 (+ ?v_1 (+ ?v_77 (+ ?v_68 (+ ?v_70 (+ ?v_2 (+ ?v_8 (+ ?v_20 (+ ?v_31 (+ ?v_9 (+ ?v_3 (+ ?v_4 (+ ?v_15 (+ ?v_5 (+ ?v_6 (+ ?v_87 (+ ?v_33 (+ ?v_52 ?v_42)))))))))))))))))) (- 1)) (<= (+ ?v_1 (+ ?v_30 (+ (* (- 1) x27) (+ (* 2 x1) (+ ?v_78 (+ ?v_7 (+ ?v_2 (+ ?v_8 (+ ?v_9 (+ ?v_10 (+ ?v_26 (+ ?v_11 (+ ?v_51 (+ ?v_63 (+ ?v_12 (+ ?v_75 (+ ?v_4 (+ ?v_28 ?v_18)))))))))))))))))) (- 1)) (<= (+ ?v_13 (+ ?v_43 (+ ?v_36 (+ ?v_22 (+ ?v_25 (+ ?v_44 (+ ?v_49 (+ ?v_14 (+ ?v_7 (+ ?v_55 (+ ?v_15 (+ ?v_11 (+ ?v_59 (+ ?v_16 (+ ?v_60 (+ ?v_17 (+ ?v_41 (+ ?v_18 (* 2 x9))))))))))))))))))) 0) (<= (+ ?v_14 (+ ?v_19 (+ ?v_2 (+ (* (- 2) x14) (+ ?v_20 (+ ?v_21 (+ ?v_22 (+ ?v_50 (+ ?v_58 (+ ?v_23 (+ ?v_24 (+ ?v_25 (+ ?v_15 (+ ?v_71 (+ ?v_26 (+ ?v_74 (+ ?v_82 (+ ?v_27 (+ ?v_72 (+ ?v_28 ?v_66)))))))))))))))))))) (- 1)) (<= (+ ?v_19 (+ (* (- 1) x12) (+ ?v_34 (+ (* (- 2) x13) (+ ?v_8 (+ ?v_29 (+ ?v_21 (+ ?v_30 (+ ?v_31 (+ ?v_9 (+ ?v_90 (+ ?v_10 (+ ?v_0 (+ ?v_25 (+ ?v_56 (+ ?v_32 (+ ?v_6 (+ ?v_61 (+ ?v_33 (+ ?v_12 ?v_83)))))))))))))))))))) 1) (<= (+ ?v_76 (+ ?v_14 (+ ?v_34 (+ ?v_47 (+ ?v_69 (+ ?v_20 (+ ?v_35 (+ ?v_36 (+ ?v_37 (+ ?v_3 (+ ?v_25 (+ ?v_33 (+ ?v_38 (+ ?v_39 (+ ?v_81 (+ ?v_85 (+ ?v_40 (+ ?v_91 ?v_57)))))))))))))))))) 0) (<= (+ ?v_19 (+ ?v_34 (+ ?v_8 (+ ?v_21 (+ ?v_43 (+ ?v_54 (+ ?v_15 (+ ?v_44 (+ ?v_26 (+ ?v_32 (+ ?v_27 (+ ?v_45 (+ ?v_9 (+ ?v_16 (+ ?v_84 (+ ?v_17 (+ (* (- 1) x7) (+ ?v_38 (+ ?v_39 (* 3 x9)))))))))))))))))))) (- 1)) (<= (+ ?v_46 (+ ?v_47 (+ ?v_48 (+ ?v_44 (+ ?v_27 (+ ?v_49 (+ ?v_50 (+ ?v_8 (+ ?v_64 (+ ?v_9 (+ ?v_23 (+ ?v_15 (+ ?v_32 (+ ?v_65 (+ ?v_51 (+ ?v_88 (+ (* 1 x6) (+ ?v_52 (* 1 x22))))))))))))))))))) 1) (<= (+ ?v_53 (+ ?v_22 (+ ?v_54 (+ ?v_44 (+ (* (- 2) x5) (+ ?v_62 (+ ?v_49 (+ ?v_46 (+ ?v_47 (+ (* 2 x14) (+ ?v_55 (+ ?v_73 (+ ?v_24 (+ ?v_9 (+ ?v_4 (+ ?v_56 (+ ?v_6 ?v_57))))))))))))))))) (- 1)) (<= (+ (* (- 3) x10) (+ ?v_14 (+ (* (- 3) x28) (+ (* (- 2) x6) (+ ?v_2 (+ ?v_13 (+ ?v_21 (+ ?v_43 (+ ?v_22 (+ ?v_49 (+ ?v_58 (+ ?v_23 (+ ?v_59 (+ ?v_16 (+ ?v_60 (+ ?v_4 (+ ?v_61 (+ ?v_28 ?v_52)))))))))))))))))) (- 1)) (<= (+ ?v_43 (+ ?v_48 (+ ?v_22 (+ ?v_62 (+ ?v_49 (+ ?v_2 (+ ?v_34 (+ ?v_55 (+ ?v_9 (+ ?v_23 (+ ?v_32 (+ ?v_61 (+ ?v_33 (+ ?v_63 (+ ?v_16 (+ ?v_79 (+ ?v_64 (+ ?v_65 (+ ?v_17 ?v_89))))))))))))))))))) 0) (<= (+ ?v_68 (+ ?v_69 (+ ?v_13 (+ ?v_70 (+ ?v_71 (+ ?v_72 (+ ?v_38 (+ ?v_49 (+ ?v_14 (+ ?v_73 (+ ?v_23 (+ ?v_32 (+ ?v_74 (+ ?v_5 (+ ?v_63 (+ ?v_75 (+ ?v_24 (+ ?v_41 (+ ?v_66 (* 2 x3)))))))))))))))))))) (- 1)) (<= (+ ?v_76 (+ (* (- 1) x11) (+ ?v_20 (+ ?v_43 (+ ?v_36 (+ ?v_49 (+ ?v_2 (+ ?v_9 (+ ?v_74 (+ ?v_11 (+ ?v_37 (+ ?v_10 (+ ?v_3 (+ ?v_51 (+ (* 2 x24) (+ ?v_17 (+ ?v_61 (+ ?v_18 ?v_52)))))))))))))))))) 0) (<= (+ ?v_77 (+ ?v_19 (+ (* (- 2) x21) (+ ?v_78 (+ ?v_7 (+ ?v_2 (+ ?v_15 (+ ?v_5 (+ ?v_11 (+ ?v_79 (+ ?v_62 (+ ?v_55 (+ ?v_73 (+ ?v_37 (+ ?v_10 (+ ?v_40 (+ ?v_61 (+ ?v_33 (+ ?v_60 (+ ?v_65 ?v_28)))))))))))))))))))) 0) (<= (+ ?v_46 (+ ?v_2 (+ ?v_34 (+ ?v_13 (+ ?v_78 (+ ?v_80 (+ ?v_73 (+ ?v_9 (+ ?v_10 (+ ?v_16 (+ ?v_65 (+ ?v_4 (+ ?v_81 (+ ?v_82 (+ ?v_11 (+ ?v_17 (+ ?v_33 (+ ?v_28 ?v_83)))))))))))))))))) 1) (<= (+ ?v_14 (+ ?v_53 (+ ?v_47 (+ ?v_69 (+ ?v_13 (+ ?v_20 (+ ?v_73 (+ ?v_36 (+ ?v_44 (+ ?v_72 (+ ?v_9 (+ ?v_23 (+ ?v_84 (+ ?v_4 (+ ?v_5 (+ ?v_85 (+ ?v_6 (+ ?v_63 ?v_28)))))))))))))))))) 0) (<= (+ ?v_30 (+ ?v_46 (+ ?v_86 (+ ?v_70 (+ ?v_44 (+ ?v_50 (+ ?v_10 (+ ?v_32 (+ ?v_11 (+ ?v_64 (+ ?v_60 (+ ?v_87 (+ ?v_17 (+ ?v_88 ?v_89)))))))))))))) 0) (<= (+ ?v_14 (+ ?v_7 (+ ?v_2 (+ (* (- 2) x2) (+ ?v_13 (+ ?v_35 (+ ?v_44 (+ ?v_71 (+ ?v_12 (+ ?v_50 (+ ?v_90 (+ ?v_10 (+ ?v_15 (+ ?v_59 (+ ?v_39 (+ ?v_64 (+ ?v_3 (+ ?v_91 (+ ?v_18 ?v_67))))))))))))))))))) 1)))))
(check-sat)
(exit)
